fo7.py
Ipopt 3.12: 
==> Warning: Treating 42 binary and 0 integer variables as continous.


******************************************************************************
This program contains Ipopt, a library for large-scale nonlinear optimization.
 Ipopt is released as open source code under the Eclipse Public License (EPL).
         For more information visit http://projects.coin-or.org/Ipopt
******************************************************************************

This is Ipopt version 3.12, running with linear solver ma27.

Number of nonzeros in equality constraint Jacobian...:        0
Number of nonzeros in inequality constraint Jacobian.:      842
Number of nonzeros in Lagrangian Hessian.............:       14

Total number of variables............................:      112
                     variables with only lower bounds:        0
                variables with lower and upper bounds:       56
                     variables with only upper bounds:        0
Total number of equality constraints.................:        0
Total number of inequality constraints...............:      211
        inequality constraints with only lower bounds:        0
   inequality constraints with lower and upper bounds:        0
        inequality constraints with only upper bounds:      211

iter    objective    inf_pr   inf_du lg(mu)  ||d||  lg(rg) alpha_du alpha_pr  ls
   0  0.0000000e+00 7.62e+00 7.04e-01  -1.0 0.00e+00    -  0.00e+00 0.00e+00   0
   1  1.0465914e-02 7.56e+00 1.35e+00  -1.0 7.23e+00    -  1.77e-02 8.31e-03f  1
   2  4.2342699e-02 7.40e+00 2.00e+00  -1.0 7.14e+00    -  1.11e-02 2.17e-02f  1
   3  3.4290582e-01 5.90e+00 1.31e+01  -1.0 7.38e+00    -  4.19e-02 2.18e-01f  1
   4  1.5864445e+00 1.09e+00 4.52e+00  -1.0 6.27e+00    -  5.79e-01 1.00e+00f  1
   5  2.3101883e+00 0.00e+00 2.18e+00  -1.0 1.56e+00    -  6.08e-01 1.00e+00f  1
   6  2.2186747e+00 0.00e+00 7.49e-01  -1.0 9.93e-01    -  5.67e-01 1.00e+00f  1
   7  2.3502299e+00 0.00e+00 3.24e-01  -1.0 2.15e+00    -  6.25e-01 1.00e+00f  1
   8  5.1339069e-01 0.00e+00 2.94e-02  -1.7 1.33e+00    -  8.62e-01 1.00e+00f  1
   9  7.4072213e-02 0.00e+00 5.94e-03  -2.5 9.00e-01    -  8.92e-01 1.00e+00f  1
iter    objective    inf_pr   inf_du lg(mu)  ||d||  lg(rg) alpha_du alpha_pr  ls
  10  3.7810470e-03 0.00e+00 3.95e-04  -3.8 4.18e-01    -  9.53e-01 1.00e+00h  1
  11  4.6045403e-05 0.00e+00 6.46e-06  -5.7 1.06e-01    -  9.88e-01 1.00e+00h  1
  12 -5.8870113e-08 0.00e+00 7.69e-07  -8.6 1.23e-02    -  9.99e-01 1.00e+00h  1
  13 -5.6250989e-08 0.00e+00 1.10e-01  -8.6 1.06e-05  -4.0 8.42e-01 1.00e+00f  1
  14 -5.9197879e-08 0.00e+00 1.06e-09  -8.6 3.18e-05  -4.5 1.00e+00 1.00e+00h  1

Number of Iterations....: 14

                                   (scaled)                 (unscaled)
Objective...............:  -5.9197878929672479e-08   -5.9197878929672479e-08
Dual infeasibility......:   1.0592154134286814e-09    1.0592154134286814e-09
Constraint violation....:   0.0000000000000000e+00    0.0000000000000000e+00
Complementarity.........:   2.9612673803138550e-09    2.9612673803138550e-09
Overall NLP error.......:   2.9612673803138550e-09    2.9612673803138550e-09


Number of objective function evaluations             = 15
Number of objective gradient evaluations             = 15
Number of equality constraint evaluations            = 0
Number of inequality constraint evaluations          = 15
Number of equality constraint Jacobian evaluations   = 0
Number of inequality constraint Jacobian evaluations = 15
Number of Lagrangian Hessian evaluations             = 14
Total CPU secs in IPOPT (w/o function evaluations)   =      0.010
Total CPU secs in NLP function evaluations           =      0.000

EXIT: Optimal Solution Found.

Time elapsed: 0.1303393840789795